Version identifier: 20.1.0.0 | 2020-11-10 | 9bedb6d68
CPXPARAM_Threads                                 1
CPXPARAM_TimeLimit                               7200
CPXPARAM_MIP_Tolerances_MIPGap                   0
Generic callback                                 0x60
1 of 1 MIP starts provided solutions.
MIP start 'm1' defined initial solution with objective 4414.0540.
Tried aggregator 1 time.
Reduced MIP has 801001 rows, 800801 columns, and 2400800 nonzeros.
Reduced MIP has 800 binaries, 0 generals, 0 SOSs, and 0 indicators.
Presolve time = 0.73 sec. (638.96 ticks)
Probing time = 0.10 sec. (100.03 ticks)
Tried aggregator 1 time.
Reduced MIP has 801001 rows, 800801 columns, and 2400800 nonzeros.
Reduced MIP has 800 binaries, 0 generals, 0 SOSs, and 0 indicators.
Presolve time = 0.73 sec. (625.98 ticks)
Probing time = 0.11 sec. (100.03 ticks)
MIP emphasis: balance optimality and feasibility.
MIP search method: dynamic search.
Parallel mode: none, using 1 thread.
Root relaxation solution time = 0.24 sec. (308.52 ticks)

        Nodes                                         Cuts/
   Node  Left     Objective  IInf  Best Integer    Best Bound    ItCnt     Gap

*     0+    0                         4414.0540     5432.0000            23.06%
      0     0     4426.0500    49     4414.0540     5432.0000        0   23.06%
      0     2     4426.0500    49     4414.0540     4426.0498        0    0.27%
Elapsed time = 734.66 sec. (608280.60 ticks, tree = 0.01 MB, solutions = 1)
      1     3     4424.5470    18     4414.0540     4426.0496     5087    0.27%
      2     4     4424.3465    26     4414.0540     4426.0496     5358    0.27%
      3     5     4424.4708    14     4414.0540     4426.0496     5379    0.27%
      4     6     4424.4049     9     4414.0540     4426.0496     6151    0.27%
      5     7     4424.4026    13     4414.0540     4426.0496     8892    0.27%
      6     8     4424.3571     9     4414.0540     4426.0496    15981    0.27%
      7     9     4424.3172    13     4414.0540     4426.0496    19935    0.27%
      8    10     4424.3092    38     4414.0540     4426.0496    22148    0.27%
      9    11     4424.3160    15     4414.0540     4426.0496    22185    0.27%
     10    12     4424.1424    10     4414.0540     4426.0496    24785    0.27%
Elapsed time = 1153.84 sec. (851327.96 ticks, tree = 2.87 MB, solutions = 1)
     11    13     4424.1093     8     4414.0540     4426.0496    26124    0.27%
     12    14     4424.1056     4     4414.0540     4426.0496    26270    0.27%
     13    15     4424.0958     6     4414.0540     4426.0496    26552    0.27%
     14    16     4423.8651     6     4414.0540     4426.0496    28207    0.27%
     15    17     4424.0911     2     4414.0540     4426.0496    28698    0.27%
     16    18     4424.0896     4     4414.0540     4426.0496    35112    0.27%
     17    19     4424.0804     2     4414.0540     4426.0496    40854    0.27%
     18    20     4424.0701     9     4414.0540     4426.0496    47007    0.27%
     19    21     4424.0792     2     4414.0540     4426.0496    63596    0.27%
*    20+   18                         4424.0222     4426.0496             0.05%
     20    20     4424.0726     4     4424.0222     4426.0496    64111    0.05%
Elapsed time = 1490.97 sec. (1046745.71 ticks, tree = 4.88 MB, solutions = 2)
     21    21     4424.0401     9     4424.0222     4426.0496    70135    0.05%
     22    22     4424.0717     4     4424.0222     4426.0496    73592    0.05%
     23    21        cutoff           4424.0222     4426.0496    78704    0.05%
     24    22     4424.0661    12     4424.0222     4426.0496    80770    0.05%
     25    21        cutoff           4424.0222     4426.0496    85310    0.05%
     26    22     4424.0659    10     4424.0222     4426.0496    85963    0.05%
     28    24     4424.0647     6     4424.0222     4426.0496    87039    0.05%
     30    24        cutoff           4424.0222     4426.0496    92001    0.05%
     32    24        cutoff           4424.0222     4426.0496    95909    0.05%
     34    26     4424.0607     4     4424.0222     4426.0496    96907    0.05%
Elapsed time = 1600.65 sec. (1074137.22 ticks, tree = 18.82 MB, solutions = 2)
     35    25        cutoff           4424.0222     4426.0496    98572    0.05%
     36    26     4424.0605     2     4424.0222     4426.0496    98585    0.05%
     38    26        cutoff           4424.0222     4426.0496   102394    0.05%
     40    26        cutoff           4424.0222     4426.0496   105269    0.05%
     42    28     4424.0360     2     4424.0222     4426.0496   105618    0.05%
     43    27        cutoff           4424.0222     4426.0496   108148    0.05%
     45    29     4424.0332     2     4424.0222     4426.0496   110159    0.05%
*    46    26      integral     0     4424.0354     4426.0496   110163    0.05%
     47    25        cutoff           4424.0354     4426.0496   111932    0.05%
     48    26     4424.3269    35     4424.0354     4424.4708   125440    0.01%
     49    27     4424.2500    31     4424.0354     4424.4708   125833    0.01%
Elapsed time = 1737.97 sec. (1121754.96 ticks, tree = 19.40 MB, solutions = 3)
*    50+   11                         4424.1484     4424.4708             0.01%
     50    13     4424.2283    28     4424.1484     4424.4708   134010    0.01%
     51    14     4424.2267     9     4424.1484     4424.4708   136037    0.01%
     52    15     4424.2236    12     4424.1484     4424.4708   144055    0.01%
     53    14        cutoff           4424.1484     4424.4708   155658    0.01%
     54    15     4424.2227     7     4424.1484     4424.4708   156937    0.01%
     56    15        cutoff           4424.1484     4424.4708   160368    0.01%
     57    16     4424.2088     4     4424.1484     4424.4708   161383    0.01%
     58    17     4424.2084     6     4424.1484     4424.4708   163358    0.01%
     59    16        cutoff           4424.1484     4424.4708   169871    0.01%
     60    17     4424.2067     6     4424.1484     4424.4708   170775    0.01%
Elapsed time = 1935.55 sec. (1199296.66 ticks, tree = 16.24 MB, solutions = 4)
     61    16        cutoff           4424.1484     4424.4708   175648    0.01%
     62    17     4424.2065     6     4424.1484     4424.4708   176421    0.01%
     63    16        cutoff           4424.1484     4424.4708   187256    0.01%
     65    16        cutoff           4424.1484     4424.4708   193385    0.01%
     66    17     4424.2015    13     4424.1484     4424.4708   194721    0.01%
     67    16        cutoff           4424.1484     4424.4708   196901    0.01%
     68    17     4424.1855    11     4424.1484     4424.4708   197874    0.01%
*    70+   17                         4424.1567     4424.4708             0.01%
     70    19     4424.1755    17     4424.1567     4424.4708   199863    0.01%
     72    19     4424.1724    11     4424.1567     4424.4708   201649    0.01%
     74    17        cutoff           4424.1567     4424.4708   207557    0.01%
Elapsed time = 2062.73 sec. (1271429.30 ticks, tree = 22.93 MB, solutions = 5)
     75    18     4424.4263    14     4424.1567     4424.4263   209933    0.01%
     76    19     4424.3758    10     4424.1567     4424.4263   217716    0.01%
     77    20     4424.3740    10     4424.1567     4424.4263   224469    0.01%
     78    21     4424.3716    10     4424.1567     4424.4263   238495    0.01%
     80    23     4424.3634    11     4424.1567     4424.4263   238644    0.01%
     82    25     4424.3166    11     4424.1567     4424.4263   239524    0.01%
     83    26     4424.3067    26     4424.1567     4424.4263   244297    0.01%
     85    28     4424.2716    16     4424.1567     4424.4263   246645    0.01%
     86    29     4424.2678     9     4424.1567     4424.4263   254136    0.01%
     87    30     4424.2603    16     4424.1567     4424.4263   255871    0.01%
Elapsed time = 2264.64 sec. (1336588.80 ticks, tree = 32.48 MB, solutions = 5)
     88    31     4424.2598     9     4424.1567     4424.4263   256985    0.01%
     89    32     4424.2401    15     4424.1567     4424.4263   258242    0.01%
     90    33     4424.2266     7     4424.1567     4424.4263   258860    0.01%
     91    34     4424.2125     7     4424.1567     4424.4263   274192    0.01%
     92    33        cutoff           4424.1567     4424.4263   282490    0.01%
     93    34     4424.2055    15     4424.1567     4424.4263   282625    0.01%
     95    36     4424.1635    11     4424.1567     4424.4263   293183    0.01%
     96    37     4424.1586     9     4424.1567     4424.4263   296815    0.01%
     98    35        cutoff           4424.1567     4424.4263   296837    0.01%
     99    36     4424.3059    14     4424.1567     4424.4026   297230    0.01%
Elapsed time = 2447.16 sec. (1404053.89 ticks, tree = 40.31 MB, solutions = 5)
    100    37     4424.3031    16     4424.1567     4424.4026   301839    0.01%
    101    38     4424.2576    14     4424.1567     4424.4026   305868    0.01%
    102    39     4424.2507    20     4424.1567     4424.4026   309128    0.01%
    103    40     4424.2358    22     4424.1567     4424.4026   311082    0.01%
    104    41     4424.2223    22     4424.1567     4424.4026   314125    0.01%
    106    43     4424.2136    25     4424.1567     4424.4026   316025    0.01%
    107    44     4424.2073    13     4424.1567     4424.4026   319689    0.01%
    108    43        cutoff           4424.1567     4424.4026   323836    0.01%
    109    42        cutoff           4424.1567     4424.4026   336816    0.01%
*   110+   39                         4424.1794     4424.4026             0.01%
*   110+   24                         4424.2540     4424.4026             0.00%
    110    26     4424.4011    15     4424.2540     4424.4019   337326    0.00%
Elapsed time = 2661.37 sec. (1526887.05 ticks, tree = 25.22 MB, solutions = 7)
    111    27     4424.3592    10     4424.2540     4424.4019   342874    0.00%
    112    28     4424.3544    11     4424.2540     4424.4019   349150    0.00%
    113    29     4424.3451    19     4424.2540     4424.4019   351218    0.00%
    114    30     4424.3450    25     4424.2540     4424.4019   363679    0.00%
    115    31     4424.3447    26     4424.2540     4424.4019   371380    0.00%
    116    32     4424.3266    10     4424.2540     4424.4019   371706    0.00%
    118    34     4424.3174    13     4424.2540     4424.4019   371845    0.00%
    119    35     4424.3128    20     4424.2540     4424.4019   371910    0.00%
    120    36     4424.3081    20     4424.2540     4424.4019   371956    0.00%
    122    38     4424.2851    19     4424.2540     4424.4019   372210    0.00%
Elapsed time = 2891.73 sec. (1592800.36 ticks, tree = 83.66 MB, solutions = 7)
    124    40     4424.2657    11     4424.2540     4424.4019   372413    0.00%
    128    38        cutoff           4424.2540     4424.4019   372572    0.00%
    129    39     4424.3017    14     4424.2540     4424.4011   373379    0.00%
*   130+   29                         4424.3001     4424.4011             0.00%
    130    30     4424.3014     9     4424.3001     4424.4011   373863    0.00%
    131    30     4424.3009    13     4424.3001     4424.4011   375114    0.00%
    135    32     4424.3007    13     4424.3001     4424.4011   375298    0.00%
    139    32     4424.3006    13     4424.3001     4424.4011   375455    0.00%
    145    33     4424.3005    11     4424.3001     4424.4011   375599    0.00%
    148    32        cutoff           4424.3001     4424.4011   375957    0.00%
    150    32     4424.3532    15     4424.3001     4424.3758   376286    0.00%
Elapsed time = 3264.11 sec. (1718416.04 ticks, tree = 75.83 MB, solutions = 8)
    151    31        cutoff           4424.3001     4424.3758   376825    0.00%
    152    30        cutoff           4424.3001     4424.3758   377110    0.00%
    154    28        cutoff           4424.3001     4424.3715   377492    0.00%
    156    26        cutoff           4424.3001     4424.3634   377912    0.00%
    157    25        cutoff           4424.3001     4424.3616   378428    0.00%
    158    26     4424.3139    13     4424.3001     4424.3592   378816    0.00%
    160    24        cutoff           4424.3001     4424.3592   379108    0.00%
    162    22        cutoff           4424.3001     4424.3465   379530    0.00%
    164    22     4424.3259    19     4424.3001     4424.3451   379727    0.00%
    165    21        cutoff           4424.3001     4424.3451   380205    0.00%
Elapsed time = 3375.01 sec. (1789239.75 ticks, tree = 60.74 MB, solutions = 8)
    168    20        cutoff           4424.3001     4424.3451   380547    0.00%
    171    17        cutoff           4424.3001     4424.3269   381033    0.00%
    175    13        cutoff           4424.3001     4424.3166   381255    0.00%
    177    11        cutoff           4424.3001     4424.3159   381565    0.00%
    181     7        cutoff           4424.3001     4424.3080   381722    0.00%

User cuts applied:  4

Root node processing (before b&c):
  Real time             =  734.68 sec. (608288.09 ticks)
Sequential b&c:
  Real time             = 2689.93 sec. (1214021.42 ticks)
                          ------------
Total (root+branch&cut) = 3424.61 sec. (1822309.51 ticks)
@Parameters: 
is_S_cut                                true
is_add_all_yinF                         true
is_start_value                          true
is_usercut                              true
is_visualization                        false
uc_only_rootnode                        false

data                                    Qi
fn                                      data/Qi/instance_1000_800.csv
mode                                    ZLP
solver                                  cplex

p                                       50
r                                       2

EPS                                     1.0e-06
EPS_vio                                 1.0e-04
beta                                    0.10
gap                                     0.00
nodelimit                               Inf
timelimit                               7200.00


@PrintInfos
ItCnt: 381782
Current gap: 0.00 %
Termination Status: OPTIMAL
Primal Status: FEASIBLE_POINT
Solve Time: 3424.61 sec
Objective Value: 4424.300092
Number of Nodes:    189

CutInfo: [phase] num / time (sec) 
ZLP             [phase1]     0 / 0.00 [rLC]     4 / 22.22 [rUC]     2 / 8.86 [sLC]     0 / 28.99 [sUC]     2 / 1043.96 
OldSubmodular   [phase1]     0 / 0.00 [rLC]     0 / 0.00 [rUC]     0 / 0.00 [sLC]     0 / 0.00 [sUC]     0 / 0.00 
NewSubmodular   [phase1]     0 / 0.00 [rLC]     0 / 0.00 [rUC]     0 / 0.00 [sLC]     0 / 0.00 [sUC]     0 / 0.00 
PMP             [phase1]     0 / 0.00 [rLC]     5 / 16.72 [rUC]     2 / 6.37 [sLC]     7 / 25.12 [sUC]   242 / 883.58 
Separation Round: [phase1] 0  [rLC] 5  [rUC] 2  [sLC] 7  [sUC] 242
Root Best Bound 4426.049571
Root Best Integer: 4414.054048
Best Bound: 4424.300092
Best Integer: 4424.300092

